
  12    4
  10   10   10   10

   0   0   0   0   0   6 2 3 4 6 7 11 
   7  10  10  10  10   3 10 9 8 
   3  10  10  10  10   1 5 
   3  10  10  10  10   1 5 
   3  10  10  10  10   2 9 8 
   7  10  10  10  10   1 10 
   9  10  10  10  10   1 8 
   8  10  10  10  10   1 12
   3  10  10  10  10   1 12
  10  10  10  10  10   1 12
   3  10  10  10  10   1 12
   0   0   0   0   0   0 
